20190402 33100.00 21300.00
20180516 33100.00 29500.00
20171023 33267.52 15116.94
20170606 33267.52 14362.48
20161021 16662.79 7039.75
20160812 16161.10 7039.75
20160516 16000.00 7039.75
20151231 16000.00 4000.00
20150630 16000.00 4000.00
